set CS := 0 1 2 3 4 5 6 7 10 11 12 13 14 15 16 17 18 19;
set CH := 8 9;
set V := 1 10 11 12 13 14 15 20 21 22 23 50;
param h : 1 10 11 12 13 14 15 20 21 22 23 50 :=
8 1 0 0 0 0 1 0 0 0 0 0 0
9 -1 0 0 0 0 -1 0 0 0 0 0 0;

param s : 1 10 11 12 13 14 15 20 21 22 23 50 :=
0 1 1 0 0 0 0 0 0 0 0 0 0
1 -1 -1 0 0 0 0 0 0 0 0 0 0
2 1 0 1 0 0 0 0 0 0 0 0 0
3 -1 0 -1 0 0 0 0 0 0 0 0 0
4 1 0 0 1 0 0 0 0 0 0 0 0
5 -1 0 0 -1 0 0 0 0 0 0 0 0
6 1 0 0 0 1 0 0 0 0 0 0 0
7 -1 0 0 0 -1 0 0 0 0 0 0 0
10 1 0 0 0 0 0 1 0 0 0 0 0
11 -1 0 0 0 0 0 -1 0 0 0 0 0
12 1 0 0 0 0 0 0 1 0 0 0 0
13 -1 0 0 0 0 0 0 -1 0 0 0 0
14 1 0 0 0 0 0 0 0 1 0 0 0
15 -1 0 0 0 0 0 0 0 -1 0 0 0
16 1 0 0 0 0 0 0 0 0 1 0 0
17 -1 0 0 0 0 0 0 0 0 -1 0 0
18 1 0 0 0 0 0 0 0 0 0 1 0
19 1 0 0 0 0 0 0 0 0 0 1 1;
param nh := 
8 0
9 2;
param ns := 
0 0
1 2
2 0
3 2
4 0
5 2
6 0
7 2
10 0
11 2
12 0
13 2
14 0
15 2
16 0
17 2
18 0
19 0;
param w := 
0 9
1 9
2 4
3 4
4 8
5 8
6 8
7 8
10 2
11 2
12 4
13 4
14 8
15 8
16 3
17 3
18 6
19 6;
